12,5	0,0	6,3	13,4	0,0	0,0	0,0	0,0	0,0	17,4
6,0	15,8	0,0	16,4	6,2	0,0	0,0	8,0	0,0	0,0
0,0	0,0	12,3	0,0	13,7	18,0	0,0	0,0	19,8	0,0
14,9	0,0	18,9	0,0	0,0	0,0	16,3	0,0	0,0	0,0
0,0	9,3	0,0	9,5	10,7	0,0	0,0	10,6	0,0	0,0
0,0	10,6	6,2	0,0	5,1	20,0	0,0	0,0	9,8	0,0
0,0	6,1	0,0	7,8	0,0	0,0	11,9	0,0	0,0	10,2
6,0	0,0	19,2	0,0	0,0	0,0	0,0	0,0	0,0	12,3
0,0	10,3	0,0	8,3	5,8	0,0	0,0	12,1	0,0	0,0
0,0	0,0	7,4	0,0	0,0	10,8	7,5	0,0	0,0	6,4
									
2,6	3,1	3,6	3,6	3,8	5,0	3,1	5,0	4,1	3,5
